c A SAT instance generated from a 3-CNF formula that had 15 clauses and 5 variables
p cnf 5 15
-4 -5 2 0
-5 1 3 0
-4 -5 -1 0
-4 5 2 0
5 -1 -4 0
2 -3 5 0
-2 1 -3 0
-4 -5 -2 0
1 5 -3 0
-2 3 5 0
3 2 4 0
5 -3 -4 0
2 3 5 0
3 -5 -1 0
-5 -2 -4 0
